(set-logic QF_SLIA)
(declare-fun var14 () String)
(declare-fun var29 () Int)
(declare-fun var31 () Int)
(declare-fun var22 () Int)
(declare-fun var26 () Int)
(declare-fun var23 () Int)
(declare-fun var5 () String)
(declare-fun var17 () String)
(declare-fun var39 () Int)
(declare-fun var24 () Int)
(declare-fun var7 () String)
(declare-fun var37 () Int)
(declare-fun var18 () String)
(declare-fun var33 () Int)
(declare-fun var28 () Int)
(declare-fun var1 () String)
(declare-fun var4 () String)
(declare-fun var10 () String)
(declare-fun var13 () String)
(declare-fun var20 () Int)
(declare-fun var11 () String)
(declare-fun var19 () String)
(declare-fun var9 () String)
(declare-fun var0 () String)
(declare-fun var25 () Int)
(declare-fun var8 () String)
(declare-fun var2 () String)
(declare-fun var3 () String)
(declare-fun var38 () Int)
(assert (<= (str.len var2) (str.indexof var14 var19 var39)))
(assert (>= (str.len "pSdm.)4M46Ny<H?4L;,O37;rZS?ORX(f_R}n^z6l@T{y~PPUQaL)c%z'=(:|th^_<ES&\\XgIb!eTO?l<H!%mk]F%r/Fq4k${ra4Q") (str.indexof var14 var1 var28)))
(assert (str.contains (str.substr var7 var23 var25) (str.replace var1 var5 "}1SBukRc)=2?nPo58)Y8ujh*Y*,:HfxzB=$_O(Ot6{""](jR/:t2y).DwuN!xc`+]akR}7z^:vlhoi#A?[odMD,kCjphM:]KOk04N")))
(assert (str.contains (str.at (str.substr var5 var26 var29) (str.len var8)) (str.at (str.at var3 0) (str.indexof var18 var10 var22))))
(assert (str.contains (str.substr var3 var38 var33) (str.at (str.replace var13 var0 var1) (str.indexof var13 var9 var24))))
(assert (not (< var33 var20)))
(assert (str.contains (str.at var17 var38) (str.replace var5 "/TwQ-,Ay}@mSA+=2on8C5mKXa=FP1>XW#+P!!n3GV>iC|v_5Az337X7`(#tpezuV99@{vv_sn~8vapN'GJ@cjcB;9=dWltiP%;;B" var18)))
(assert (str.prefixof (str.replace var19 var14 var7) (str.replace "B_$_kLgv;`1#WP_q\\?:RWe}aL\\BQwK0)8Ks&lu%1**opjZujj@5a&uK|sWZ)KP>XLpV0]wrEJb*@<rV&NJ@&~7'`|SBY^^tN)mub" var4 var19)))
(assert (not (>= var37 var31)))
(assert (str.prefixof var18 var11))
(check-sat)
